[info | PowerModels]: Suppressing information and warning messages for the rest of this session.  Use the Memento package for more fine-grained control of logging.

******************************************************************************
This program contains Ipopt, a library for large-scale nonlinear optimization.
 Ipopt is released as open source code under the Eclipse Public License (EPL).
         For more information visit https://github.com/coin-or/Ipopt
******************************************************************************

This is Ipopt version 3.14.19, running with linear solver ma27.

Number of nonzeros in equality constraint Jacobian...:   255010
Number of nonzeros in inequality constraint Jacobian.:   209650
Number of nonzeros in Lagrangian Hessian.............:   161982

Total number of variables............................:   139502
                     variables with only lower bounds:    38880
                variables with lower and upper bounds:    13880
                     variables with only upper bounds:        0
Total number of equality constraints.................:    80406
Total number of inequality constraints...............:    71838
        inequality constraints with only lower bounds:    19242
   inequality constraints with lower and upper bounds:        0
        inequality constraints with only upper bounds:    52596

iter    objective    inf_pr   inf_du lg(mu)  ||d||  lg(rg) alpha_du alpha_pr  ls
   0  0.0000000e+00 1.00e+06 1.00e+00  -1.0 0.00e+00    -  0.00e+00 0.00e+00   0
   1 -1.9493366e+05 9.97e+05 4.54e+00  -1.0 1.00e+04  -4.0 6.09e-04 3.36e-03f  1
   2 -5.1795705e+05 9.95e+05 4.96e+00  -1.0 3.00e+04  -4.5 5.38e-04 2.08e-03f  1
   3 -6.0179857e+05 9.94e+05 4.59e+00  -1.0 9.00e+04  -5.0 7.71e-04 2.06e-04f  1

Number of Iterations....: 3

                                   (scaled)                 (unscaled)
Objective...............:  -6.0179856773286359e+05   -6.0179856773286359e+05
Dual infeasibility......:   4.5944213465550225e+00    4.5944213465550225e+00
Constraint violation....:   2.7608732426583759e+02    9.9435611828201893e+05
Variable bound violation:   0.0000000000000000e+00    0.0000000000000000e+00
Complementarity.........:   5.5873397893983918e+02    5.5873397893983918e+02
Overall NLP error.......:   5.5873397893983918e+02    9.9435611828201893e+05


Number of objective function evaluations             = 4
Number of objective gradient evaluations             = 4
Number of equality constraint evaluations            = 4
Number of inequality constraint evaluations          = 4
Number of equality constraint Jacobian evaluations   = 4
Number of inequality constraint Jacobian evaluations = 4
Number of Lagrangian Hessian evaluations             = 3
Total seconds in IPOPT                               = 42.171

EXIT: Maximum Number of Iterations Exceeded.
